Normalized Data/p10_7_normalized_split0.vrp
NAME:p10_7_NORMALIZED_split
BEST_KNOWN: 0
COMMENT: 0
DIMENSION: 854
CAPACITY: 100
EDGE_WEIGHT_FORMAT: FUNCTION
EDGE_WEIGHT_TYPE: EXACT_2D
NODE_COORD_SECTION
1 0.00000 0.00000
2 -24 -37
3 -24 -37
4 -2 28
5 -2 28
6 -2 28
7 -2 28
8 -2 28
9 -32 16
10 -32 16
11 23 48
12 23 48
13 23 48
14 23 48
15 -20 6
16 -20 6
17 25 15
18 25 15
19 25 15
20 25 15
21 -47 33
22 -47 33
23 -47 33
24 -47 33
25 -27 8
26 -1 6
27 -1 6
28 -1 6
29 -1 6
30 -1 6
31 -25 39
32 -25 39
33 -25 39
34 -25 39
35 -25 39
36 -9 12
37 -9 12
38 -9 12
39 -9 12
40 -9 12
41 -1 31
42 -1 31
43 -1 31
44 -1 31
45 9 -1
46 9 -1
47 9 -1
48 9 -1
49 9 -1
50 35 -29
51 35 -29
52 35 -29
53 35 -29
54 35 -29
55 21 -43
56 21 -43
57 21 -43
58 6 50
59 6 50
60 6 50
61 6 50
62 6 50
63 6 50
64 -9 0
65 -9 0
66 -9 0
67 43 -11
68 43 -11
69 43 -11
70 43 -11
71 43 -11
72 23 28
73 23 28
74 23 28
75 23 28
76 23 28
77 23 28
78 -11 20
79 -11 20
80 -11 20
81 31 -42
82 31 -42
83 31 -42
84 31 -42
85 31 -42
86 31 -42
87 11 37
88 11 37
89 8 7
90 8 7
91 8 7
92 8 7
93 -22 -15
94 -22 -15
95 -22 -15
96 -22 -15
97 -22 -15
98 5 -4
99 5 -4
100 5 -4
101 2 7
102 2 7
103 2 7
104 2 7
105 2 7
106 2 7
107 42 -22
108 42 -22
109 42 -22
110 -21 -24
111 -21 -24
112 -21 -24
113 -21 -24
114 -21 -24
115 -21 -24
116 -20 -28
117 -20 -28
118 -20 -28
119 -20 -28
120 20 -1
121 20 -1
122 20 -1
123 49 17
124 49 17
125 49 17
126 -11 14
127 -11 14
128 -11 14
129 -11 14
130 -47 -45
131 -47 -45
132 -47 -45
133 -47 -45
134 -47 -45
135 49 -32
136 49 -32
137 49 -32
138 49 -32
139 49 -32
140 5 0
141 5 0
142 5 0
143 5 0
144 5 0
145 5 0
146 35 38
147 35 38
148 35 38
149 35 38
150 -49 23
151 -49 23
152 -49 23
153 -49 23
154 -5 -25
155 -5 -25
156 -5 -25
157 -5 -25
158 -5 -25
159 46 -44
160 46 -44
161 46 -44
162 46 -44
163 -21 17
164 -21 17
165 -44 -22
166 -44 -22
167 -44 -22
168 -44 -22
169 -44 -22
170 -44 -22
171 27 -9
172 27 -9
173 27 -9
174 27 -9
175 27 -9
176 16 -8
177 16 -8
178 16 -8
179 16 -8
180 16 -8
181 31 50
182 31 50
183 31 -38
184 31 -38
185 31 -38
186 -24 -36
187 -24 -36
188 -24 -36
189 -24 -36
190 -24 -36
191 -24 -36
192 -32 11
193 -32 11
194 -32 11
195 -32 11
196 -32 11
197 -32 11
198 -32 11
199 -7 30
200 -7 30
201 -7 30
202 -7 30
203 27 -45
204 27 -45
205 27 -45
206 27 -45
207 27 -45
208 27 -45
209 27 -45
210 -39 -41
211 -39 -41
212 -39 -41
213 -39 -41
214 -39 -41
215 3 -1
216 3 -1
217 3 -1
218 3 -1
219 2 50
220 2 50
221 2 50
222 2 50
223 2 50
224 2 50
225 -15 -33
226 -15 -33
227 -15 -33
228 -15 -33
229 -15 -33
230 -15 -33
231 -19 -3
232 -19 -3
233 -19 -3
234 27 -17
235 27 -17
236 27 -17
237 27 -17
238 22 20
239 22 20
240 22 20
241 22 20
242 22 20
243 22 20
244 22 20
245 -17 36
246 -17 36
247 -17 36
248 -17 36
249 -17 36
250 -17 36
251 -17 36
252 -8 1
253 -8 1
254 -6 -27
255 -6 -27
256 -6 -27
257 -6 -27
258 -6 -27
259 -6 -27
260 -6 -27
261 43 -1
262 43 -1
263 43 -1
264 43 -1
265 43 -1
266 -38 -12
267 -38 -12
268 -38 -12
269 -38 -12
270 46 -35
271 46 -35
272 46 -35
273 -34 16
274 -34 16
275 -34 16
276 -34 16
277 -32 19
278 -32 19
279 -32 19
280 -32 19
281 -32 19
282 2 17
283 2 17
284 2 17
285 2 17
286 2 17
287 -14 -29
288 -14 -29
289 -14 -29
290 -14 -29
291 -14 -29
292 46 -33
293 46 -33
294 46 -33
295 46 -33
296 -49 -41
297 -49 -41
298 -49 -41
299 -49 -41
300 -49 -41
301 -49 -41
302 -19 44
303 -19 44
304 -19 44
305 -44 -30
306 -44 -30
307 -44 -30
308 -31 38
309 -31 38
310 9 48
311 9 48
312 9 48
313 -8 47
314 -8 47
315 -8 47
316 10 -31
317 10 -31
318 10 -31
319 10 -31
320 10 -31
321 29 4
322 29 4
323 29 4
324 -23 40
325 -23 40
326 -23 40
327 -34 -5
328 -34 -5
329 -34 -5
330 -34 -5
331 -34 -5
332 14 43
333 14 43
334 14 43
335 14 43
336 34 33
337 34 33
338 34 33
339 34 33
340 34 33
341 34 33
342 13 -2
343 13 -2
344 13 -2
345 13 -2
346 -47 -20
347 -47 -20
348 -47 -20
349 -47 -20
350 -37 -36
351 -37 -36
352 20 30
353 20 30
354 20 30
355 -48 11
356 -48 11
357 -48 11
358 -48 11
359 -48 11
360 18 17
361 18 17
362 7 13
363 7 13
364 31 -37
365 31 -37
366 31 -37
367 43 -7
368 43 -7
369 -10 11
370 -10 11
371 10 -33
372 10 -33
373 10 -33
374 10 -33
375 45 33
376 45 33
377 45 33
378 31 -29
379 31 -29
380 31 -29
381 -20 49
382 -20 49
383 -20 49
384 -20 49
385 5 -16
386 5 -16
387 5 -16
388 39 45
389 39 45
390 39 45
391 39 45
392 39 45
393 14 -17
394 14 -17
395 14 -17
396 14 -17
397 14 -17
398 14 -17
399 -11 -45
400 -11 -45
401 -11 -45
402 -30 6
403 -30 6
404 24 -41
405 24 -41
406 15 -16
407 15 -16
408 15 -16
409 15 -16
410 15 -16
411 -29 11
412 -29 11
413 -29 11
414 -29 11
415 -29 11
416 -29 11
417 7 -16
418 7 -16
419 7 -16
420 18 -35
421 18 -35
422 18 -35
423 49 16
424 49 16
425 49 16
426 49 16
427 -31 -40
428 -31 -40
429 -31 -40
430 -31 -40
431 -29 -17
432 -29 -17
433 -22 5
434 -22 5
435 -22 5
436 -22 5
437 -27 7
438 -27 7
439 -27 7
440 -27 7
441 -27 7
442 -27 7
443 -27 7
444 27 1
445 27 1
446 27 1
447 27 1
448 27 1
449 27 1
450 27 1
451 41 -40
452 41 -40
453 41 -40
454 41 -40
455 41 -40
456 41 -40
457 42 42
458 42 42
459 42 42
460 42 42
461 42 42
462 42 42
463 42 42
464 -13 42
465 -13 42
466 -13 42
467 -13 42
468 -13 42
469 -13 42
470 -21 -46
471 -21 -46
472 0 -10
473 0 -10
474 0 -10
475 0 -10
476 0 -10
477 -31 -37
478 -31 -37
479 -31 -37
480 -31 -37
481 -31 -37
482 -46 -47
483 -46 -47
484 -46 -47
485 -46 18
486 -46 18
487 -46 18
488 -46 18
489 -46 18
490 -13 -45
491 -13 -45
492 -13 -45
493 -13 -45
494 -13 -45
495 22 38
496 22 38
497 22 38
498 22 38
499 22 38
500 22 38
501 17 -21
502 17 -21
503 17 -21
504 17 -21
505 17 -21
506 17 -21
507 17 -21
508 12 -30
509 12 -30
510 12 -30
511 12 -30
512 40 -27
513 40 -27
514 40 -27
515 40 -27
516 40 -27
517 26 47
518 26 47
519 26 47
520 26 47
521 26 47
522 13 -24
523 13 -24
524 20 40
525 20 40
526 20 40
527 20 40
528 20 40
529 20 40
530 20 40
531 -26 39
532 -26 39
533 -26 39
534 -26 39
535 -41 -29
536 -28 24
537 44 16
538 44 16
539 44 16
540 44 16
541 50 -23
542 50 -23
543 50 -23
544 31 47
545 31 47
546 31 47
547 31 47
548 31 47
549 40 34
550 40 34
551 40 34
552 40 34
553 40 34
554 50 3
555 50 3
556 50 3
557 50 3
558 -12 -24
559 -12 -24
560 -12 -24
561 45 -25
562 45 -25
563 45 -25
564 -26 -49
565 -26 -49
566 -26 -49
567 -30 -19
568 -30 -19
569 -30 -19
570 -30 -19
571 -30 -19
572 -30 -19
573 -30 7
574 -30 7
575 -30 7
576 -30 7
577 17 31
578 17 31
579 17 31
580 17 31
581 17 31
582 17 31
583 17 31
584 27 -50
585 27 -50
586 27 -50
587 -33 -2
588 -33 -2
589 -33 -2
590 -33 -2
591 9 -30
592 9 -30
593 9 -30
594 9 -30
595 9 -30
596 9 -30
597 16 17
598 16 17
599 16 17
600 16 17
601 -50 31
602 -50 31
603 -50 31
604 -50 31
605 -50 31
606 -33 21
607 -33 21
608 -33 21
609 -33 21
610 -33 21
611 -33 21
612 -33 21
613 -6 -46
614 -6 -46
615 -6 -46
616 -6 -46
617 -6 -46
618 10 -39
619 10 -39
620 10 -39
621 10 -39
622 10 -39
623 10 -39
624 16 -23
625 16 -23
626 16 -23
627 -32 -2
628 -32 -2
629 -32 -2
630 50 10
631 50 10
632 50 10
633 50 10
634 50 10
635 50 10
636 50 10
637 -4 -8
638 -4 -8
639 -4 -8
640 -4 -8
641 -4 -8
642 -4 -8
643 29 -31
644 29 -31
645 -31 -38
646 -31 -38
647 -31 -38
648 -31 -38
649 -31 -38
650 -31 -38
651 -24 10
652 -24 10
653 -24 10
654 -24 10
655 -24 10
656 -24 10
657 -34 21
658 -34 21
659 -34 21
660 35 -35
661 35 -35
662 35 -35
663 35 -35
664 35 -35
665 35 -35
666 0 39
667 0 39
668 0 39
669 0 39
670 0 39
671 -37 -10
672 -37 -10
673 26 -5
674 26 -5
675 26 -5
676 22 8
677 22 8
678 22 8
679 22 8
680 22 8
681 22 8
682 22 8
683 17 2
684 17 2
685 17 2
686 28 2
687 28 2
688 28 2
689 28 2
690 28 2
691 48 -32
692 48 -32
693 48 -32
694 48 -32
695 48 -32
696 48 -32
697 19 -20
698 19 -20
699 19 -20
700 19 -20
701 41 7
702 41 7
703 41 7
704 31 -13
705 31 -13
706 31 -13
707 31 -13
708 31 -13
709 31 -13
710 26 22
711 26 22
712 26 22
713 26 22
714 26 22
715 26 22
716 -17 -39
717 -17 -39
718 -17 -39
719 -17 -39
720 31 19
721 10 -10
722 10 -10
723 10 -10
724 10 -10
725 10 -10
726 10 -10
727 -31 -46
728 -31 -46
729 -31 -46
730 -31 -46
731 -31 -46
732 49 14
733 49 14
734 49 14
735 49 14
736 49 14
737 49 14
738 13 -18
739 13 -18
740 13 -18
741 -15 16
742 -15 16
743 -15 16
744 -15 16
745 -15 16
746 -39 15
747 -39 15
748 -39 15
749 45 44
750 45 44
751 45 44
752 45 44
753 45 44
754 45 44
755 45 44
756 10 37
757 10 37
758 -31 36
759 -31 36
760 -31 36
761 -31 36
762 -31 36
763 2 50
764 2 50
765 2 50
766 2 50
767 2 50
768 2 50
769 -35 15
770 -35 15
771 -35 15
772 -35 15
773 -35 15
774 -10 43
775 -10 43
776 -10 43
777 -10 43
778 -10 43
779 -10 43
780 -10 43
781 -50 42
782 -50 42
783 -50 42
784 -50 42
785 -50 42
786 -50 42
787 -40 -3
788 -40 -3
789 -40 -3
790 -40 -3
791 19 22
792 19 22
793 19 22
794 19 22
795 -36 25
796 -36 25
797 -36 25
798 -36 25
799 -36 25
800 23 29
801 23 29
802 23 29
803 -6 27
804 -6 27
805 -6 27
806 -6 27
807 -6 27
808 -6 27
809 27 -47
810 27 -47
811 27 -47
812 -21 46
813 -21 46
814 4 -45
815 4 -45
816 4 -45
817 4 -45
818 4 -45
819 40 6
820 40 6
821 40 6
822 22 -9
823 22 -9
824 22 -9
825 22 -9
826 22 -9
827 -22 44
828 -22 44
829 -22 44
830 -22 44
831 16 8
832 16 8
833 16 8
834 16 8
835 16 8
836 -24 36
837 -24 36
838 -24 36
839 49 -31
840 49 -31
841 49 -31
842 -5 -9
843 -5 -9
844 30 35
845 30 35
846 30 35
847 30 35
848 30 35
849 30 35
850 -44 34
851 -44 34
852 -44 34
853 -44 34
854 -44 34
DEMAND_SECTION
1 0
2 20
3 1
4 10
5 5
6 1
7 1
8 1
9 20
10 5
11 10
12 5
13 1
14 1
15 20
16 10
17 20
18 20
19 1
20 1
21 20
22 10
23 5
24 1
25 20
26 20
27 20
28 1
29 1
30 1
31 10
32 5
33 1
34 1
35 1
36 10
37 1
38 1
39 1
40 1
41 10
42 5
43 1
44 1
45 20
46 10
47 5
48 1
49 1
50 20
51 10
52 5
53 1
54 1
55 20
56 10
57 5
58 20
59 20
60 1
61 1
62 1
63 1
64 20
65 5
66 1
67 20
68 5
69 1
70 1
71 1
72 10
73 5
74 1
75 1
76 1
77 1
78 20
79 1
80 1
81 20
82 5
83 1
84 1
85 1
86 1
87 20
88 5
89 20
90 20
91 5
92 1
93 20
94 10
95 5
96 1
97 1
98 10
99 1
100 1
101 20
102 10
103 1
104 1
105 1
106 1
107 20
108 5
109 1
110 20
111 20
112 5
113 1
114 1
115 1
116 20
117 1
118 1
119 1
120 10
121 5
122 1
123 10
124 5
125 1
126 20
127 10
128 5
129 1
130 10
131 1
132 1
133 1
134 1
135 10
136 5
137 1
138 1
139 1
140 20
141 20
142 5
143 1
144 1
145 1
146 10
147 5
148 1
149 1
150 20
151 10
152 1
153 1
154 10
155 5
156 1
157 1
158 1
159 20
160 20
161 5
162 1
163 20
164 1
165 20
166 20
167 5
168 1
169 1
170 1
171 20
172 5
173 1
174 1
175 1
176 10
177 1
178 1
179 1
180 1
181 20
182 5
183 20
184 20
185 1
186 20
187 10
188 1
189 1
190 1
191 1
192 20
193 10
194 5
195 1
196 1
197 1
198 1
199 20
200 1
201 1
202 1
203 20
204 20
205 5
206 1
207 1
208 1
209 1
210 10
211 1
212 1
213 1
214 1
215 10
216 1
217 1
218 1
219 10
220 5
221 1
222 1
223 1
224 1
225 20
226 10
227 1
228 1
229 1
230 1
231 20
232 10
233 5
234 20
235 1
236 1
237 1
238 20
239 10
240 5
241 1
242 1
243 1
244 1
245 20
246 20
247 5
248 1
249 1
250 1
251 1
252 20
253 10
254 20
255 10
256 5
257 1
258 1
259 1
260 1
261 10
262 5
263 1
264 1
265 1
266 10
267 1
268 1
269 1
270 20
271 5
272 1
273 20
274 10
275 1
276 1
277 20
278 20
279 1
280 1
281 1
282 20
283 1
284 1
285 1
286 1
287 20
288 20
289 5
290 1
291 1
292 20
293 20
294 5
295 1
296 10
297 5
298 1
299 1
300 1
301 1
302 10
303 5
304 1
305 20
306 20
307 1
308 20
309 5
310 20
311 20
312 5
313 20
314 20
315 1
316 20
317 5
318 1
319 1
320 1
321 20
322 10
323 1
324 10
325 5
326 1
327 20
328 10
329 1
330 1
331 1
332 20
333 20
334 1
335 1
336 20
337 10
338 1
339 1
340 1
341 1
342 20
343 20
344 5
345 1
346 20
347 10
348 5
349 1
350 20
351 5
352 20
353 20
354 5
355 20
356 20
357 1
358 1
359 1
360 20
361 5
362 10
363 5
364 20
365 1
366 1
367 20
368 5
369 20
370 1
371 20
372 1
373 1
374 1
375 20
376 20
377 5
378 20
379 5
380 1
381 20
382 20
383 1
384 1
385 10
386 5
387 1
388 20
389 20
390 5
391 1
392 1
393 20
394 10
395 5
396 1
397 1
398 1
399 10
400 5
401 1
402 20
403 5
404 20
405 5
406 20
407 1
408 1
409 1
410 1
411 20
412 20
413 1
414 1
415 1
416 1
417 10
418 5
419 1
420 20
421 1
422 1
423 20
424 20
425 5
426 1
427 20
428 10
429 5
430 1
431 10
432 5
433 20
434 5
435 1
436 1
437 20
438 20
439 5
440 1
441 1
442 1
443 1
444 20
445 10
446 5
447 1
448 1
449 1
450 1
451 10
452 5
453 1
454 1
455 1
456 1
457 20
458 10
459 5
460 1
461 1
462 1
463 1
464 20
465 20
466 5
467 1
468 1
469 1
470 10
471 5
472 20
473 10
474 1
475 1
476 1
477 20
478 20
479 1
480 1
481 1
482 20
483 10
484 1
485 20
486 1
487 1
488 1
489 1
490 10
491 5
492 1
493 1
494 1
495 10
496 5
497 1
498 1
499 1
500 1
501 20
502 20
503 5
504 1
505 1
506 1
507 1
508 20
509 1
510 1
511 1
512 20
513 1
514 1
515 1
516 1
517 20
518 20
519 5
520 1
521 1
522 20
523 20
524 20
525 10
526 5
527 1
528 1
529 1
530 1
531 20
532 20
533 1
534 1
535 20
536 20
537 20
538 10
539 1
540 1
541 20
542 10
543 1
544 10
545 5
546 1
547 1
548 1
549 20
550 10
551 5
552 1
553 1
554 20
555 5
556 1
557 1
558 20
559 10
560 1
561 20
562 5
563 1
564 20
565 10
566 1
567 20
568 5
569 1
570 1
571 1
572 1
573 10
574 5
575 1
576 1
577 20
578 10
579 5
580 1
581 1
582 1
583 1
584 20
585 20
586 1
587 10
588 1
589 1
590 1
591 20
592 10
593 1
594 1
595 1
596 1
597 10
598 5
599 1
600 1
601 20
602 10
603 1
604 1
605 1
606 20
607 20
608 5
609 1
610 1
611 1
612 1
613 20
614 20
615 5
616 1
617 1
618 20
619 5
620 1
621 1
622 1
623 1
624 20
625 10
626 1
627 20
628 20
629 10
630 20
631 10
632 5
633 1
634 1
635 1
636 1
637 20
638 20
639 5
640 1
641 1
642 1
643 20
644 5
645 20
646 10
647 5
648 1
649 1
650 1
651 20
652 20
653 1
654 1
655 1
656 1
657 10
658 5
659 1
660 20
661 10
662 1
663 1
664 1
665 1
666 20
667 20
668 5
669 1
670 1
671 20
672 20
673 20
674 10
675 5
676 20
677 20
678 5
679 1
680 1
681 1
682 1
683 10
684 1
685 1
686 10
687 1
688 1
689 1
690 1
691 20
692 20
693 5
694 1
695 1
696 1
697 20
698 5
699 1
700 1
701 20
702 10
703 1
704 20
705 10
706 5
707 1
708 1
709 1
710 20
711 5
712 1
713 1
714 1
715 1
716 20
717 20
718 5
719 1
720 20
721 10
722 5
723 1
724 1
725 1
726 1
727 10
728 1
729 1
730 1
731 1
732 10
733 5
734 1
735 1
736 1
737 1
738 20
739 1
740 1
741 20
742 20
743 5
744 1
745 1
746 20
747 20
748 10
749 20
750 10
751 5
752 1
753 1
754 1
755 1
756 20
757 5
758 20
759 20
760 1
761 1
762 1
763 10
764 5
765 1
766 1
767 1
768 1
769 20
770 20
771 5
772 1
773 1
774 20
775 20
776 5
777 1
778 1
779 1
780 1
781 20
782 5
783 1
784 1
785 1
786 1
787 10
788 5
789 1
790 1
791 20
792 20
793 1
794 1
795 20
796 10
797 5
798 1
799 1
800 20
801 10
802 1
803 20
804 10
805 5
806 1
807 1
808 1
809 20
810 20
811 1
812 20
813 10
814 20
815 10
816 1
817 1
818 1
819 20
820 1
821 1
822 10
823 1
824 1
825 1
826 1
827 10
828 1
829 1
830 1
831 20
832 20
833 5
834 1
835 1
836 20
837 5
838 1
839 10
840 5
841 1
842 20
843 5
844 20
845 20
846 5
847 1
848 1
849 1
850 20
851 20
852 5
853 1
854 1
DEPOT_SECTION
1
-1
EOF