Normalized Data/p10_7_normalized_split0.sol
853 -3 4 6 198 802 803 77 78 79 36 35 -7 5 668 665 311 309 310 87 756 755 284 282 -14 15 654 650 653 651 652 434 432 435 433 -21 20 22 23 781 785 783 782 780 784 602 603 604 601 600 -24 192 191 196 197 195 193 194 413 411 410 -27 25 28 26 29 281 285 283 101 100 102 103 105 104 -39 37 38 126 128 127 125 741 740 369 368 -42 43 40 41 219 766 223 221 762 222 763 765 218 764 767 220 62 57 61 60 59 58 -46 47 48 45 44 342 344 343 341 98 99 97 -50 51 691 694 690 695 693 692 136 134 137 135 138 839 840 838 514 -63 430 431 570 569 566 571 567 568 95 93 92 94 -64 65 402 401 574 573 575 572 437 438 436 442 440 441 439 -72 73 338 340 336 552 551 548 550 549 374 376 375 -76 75 74 71 146 147 148 456 460 459 462 457 461 458 750 749 752 748 751 753 754 -86 332 334 333 331 525 523 528 526 496 497 499 495 498 -91 88 89 90 139 140 142 214 216 -96 534 305 306 304 349 350 645 649 -106 108 107 560 562 561 541 540 542 707 704 706 823 825 822 824 -109 110 111 112 113 114 116 118 117 115 286 289 288 290 559 -121 119 120 449 445 443 448 447 446 444 674 672 673 175 -122 424 732 731 734 736 735 733 630 629 634 633 631 632 635 555 554 556 553 -141 684 683 682 19 18 16 17 360 359 361 362 -144 143 262 264 263 260 261 366 367 70 69 66 67 68 703 705 708 -145 387 388 391 389 390 180 181 547 544 543 545 546 -150 149 151 152 488 486 485 484 487 356 358 355 357 354 -154 157 257 259 258 254 492 490 493 491 489 399 398 400 615 612 616 613 614 -163 162 280 278 607 609 606 605 610 611 608 535 744 743 742 -164 169 168 167 166 165 345 347 348 346 266 265 268 267 -189 188 186 187 185 190 1 2 646 477 476 -215 217 178 179 177 176 821 172 171 173 170 174 233 236 234 235 696 697 699 698 502 503 -231 232 230 588 589 586 587 628 627 626 -238 241 243 242 240 239 237 791 793 792 790 599 598 596 597 -244 466 464 467 463 465 468 776 775 773 779 -247 246 249 250 248 245 828 325 323 324 34 31 33 530 531 533 532 836 -251 841 842 638 637 640 639 636 641 -252 330 328 327 329 326 786 787 789 788 671 670 -279 277 276 273 274 275 272 8 9 655 -287 225 224 226 228 229 227 715 717 716 718 -295 299 298 300 296 297 129 132 131 133 130 482 481 483 213 210 211 212 209 648 644 647 -302 301 303 383 381 382 380 812 811 827 829 826 -322 320 321 701 700 702 819 818 820 686 689 685 688 687 -365 364 363 183 182 184 419 384 386 385 -378 269 271 270 292 294 293 291 513 515 512 511 -379 377 49 52 53 664 660 659 643 642 -396 395 397 83 84 80 81 82 85 159 160 161 158 450 452 454 453 455 451 661 662 663 -403 203 202 54 55 56 509 508 510 -404 208 207 204 206 205 809 808 810 584 585 583 420 421 -415 414 412 746 745 747 769 768 771 772 770 -417 521 625 624 623 504 505 501 500 506 -418 416 593 592 595 371 372 370 373 621 619 617 622 620 618 816 814 813 815 817 475 -425 422 423 123 124 539 537 536 538 719 -470 469 565 563 564 729 726 730 727 728 426 428 429 427 478 480 479 -472 474 473 471 153 155 156 256 253 255 557 558 -522 507 315 316 319 317 318 590 591 594 -529 524 527 11 12 10 13 519 516 517 520 518 494 581 577 579 582 580 -576 578 353 352 351 799 800 -656 658 657 796 798 797 795 794 849 851 850 852 853 -667 669 666 313 312 314 778 777 774 201 200 199 805 806 807 804 -678 680 676 681 677 675 679 831 832 834 833 830 -709 713 714 711 712 710 337 335 339 845 844 847 846 843 848 801 -720 723 724 721 722 725 408 406 405 407 409 392 393 394 737 738 739 -761 758 759 757 760 307 308 30 32 835 837 0 





OBJ=
5516.305
BEST_KNOWN=
0.000